c                  
c  ╔╗ ╦  ╦ ╦╔═  ╦  
c  ╠╩╗║  ║ ║║╣  ║  
c  ╚═╝╩═╝╚═╝╚═╝ ╩  
c www.peqnp.science
c                  
c VRS : 4273
c CLS : 4185
c RHO : 0.9794
c 24.92% 	 c 24.57% 	 c 24.55% 	 c 24.53% 	 c 24.18% 	 c 23.78% 	 c 23.19% 	 c 23.15% 	 c 23.05% 	 c 23.00% 	 c 22.96% 	 c 22.91% 	 c 22.89% 	 c 22.82% 	 c 22.33% 	 c 22.23% 	 c 22.19% 	 c 22.16% 	 c 21.81% 	 c 21.76% 	 c 21.74% 	 c 21.72% 	 c 21.69% 	 c 21.32% 	 c 21.25% 	 c 20.85% 	 c 20.81% 	 c 20.62% 	 c 20.59% 	 c 20.55% 	 c 20.52% 	 c 20.48% 	 c 20.43% 	 c 20.13% 	 c 20.10% 	 c 20.08% 	 c 20.06% 	 c 20.03% 	 c 19.33% 	 c 19.31% 	 c 19.28% 	 c 19.12% 	 c 19.07% 	 c 19.05% 	 c 19.03% 	 c 19.00% 	 c 18.75% 	 c 18.72% 	 c 18.00% 	 c 17.97% 	 c 17.93% 	 c 17.81% 	 c 17.27% 	 c 17.08% 	 c 17.04% 	 c 16.99% 	 c 16.94% 	 c 16.90% 	 c 16.83% 	 c 16.80% 	 c 16.55% 	 c 16.52% 	 c 16.48% 	 c 15.66% 	 c 15.54% 	 c 15.52% 	 c 15.49% 	 c 15.47% 	 c 15.21% 	 c 15.19% 	 c 10.23% 	 c 10.04% 	 c 10.02% 	 c 9.97% 	 c 9.92% 	 c 9.88% 	 c 9.83% 	 c 9.78% 	 c 9.76% 	 c 9.71% 	 c 9.69% 	 c 9.41% 	 c 9.38% 	 c 9.36% 	 c 9.34% 	 c 9.27% 	 c 9.22% 	 c 9.15% 	 c 5.22% 	 c 4.35% 	 c 3.98% 	 c 3.93% 	 c 3.25% 	 c 3.21% 	 c 2.74% 	 c 2.69% 	 c 2.67% 	 
c TIM : 0.099000(s)
s UNSATISFIABLE
